param N := 8;
param M := 13;
param K := 5;
param x_max := 8;
param y_max := 13;
param a := 1.0;
param b := 1.0;
param T := 105;
param i_start := 1 2 2 7 3 2 4 7 5 3;
param j_start := 1 9 2 11 3 12 4 9 5 2;
param i_end := 1 8 2 6 3 2 4 7 5 5;
param j_end := 1 8 2 7 3 10 4 3 5 1;